Version identifier: 22.1.0.0 | 2022-03-09 | 1a383f8ce
CPXPARAM_Read_DataCheck                          1
CPXPARAM_TimeLimit                               600
1 of 1 MIP starts provided solutions.
MIP start 'm1' defined initial solution with objective 92.0000.
Tried aggregator 4 times.
MIP Presolve eliminated 304416 rows and 19741 columns.
MIP Presolve modified 2492 coefficients.
Aggregator did 289735 substitutions.
Reduced MIP has 20925 rows, 293308 columns, and 608106 nonzeros.
Reduced MIP has 293252 binaries, 56 generals, 0 SOSs, and 0 indicators.
Presolve time = 5.23 sec. (5311.75 ticks)
Tried aggregator 1 time.
Detecting symmetries...
Reduced MIP has 20925 rows, 293308 columns, and 608106 nonzeros.
Reduced MIP has 293252 binaries, 56 generals, 0 SOSs, and 0 indicators.
Presolve time = 1.12 sec. (505.69 ticks)
Probing fixed 85 vars, tightened 0 bounds.
Probing time = 1.43 sec. (144.45 ticks)
Clique table members: 591340.
MIP emphasis: balance optimality and feasibility.
MIP search method: dynamic search.
Parallel mode: deterministic, using up to 8 threads.
Root relaxation solution time = 3.34 sec. (1921.83 ticks)

        Nodes                                         Cuts/
   Node  Left     Objective  IInf  Best Integer    Best Bound    ItCnt     Gap

*     0+    0                           92.0000        0.0000           100.00%
      0     0       56.4029 15883       92.0000       56.4029       28   38.69%
      0     0        cutoff             92.0000                    698    0.00%
Elapsed time = 35.41 sec. (21595.27 ticks, tree = 0.01 MB, solutions = 1)

Gomory fractional cuts applied:  36

Root node processing (before b&c):
  Real time             =   35.43 sec. (21615.79 ticks)
Parallel b&c, 8 threads:
  Real time             =    0.00 sec. (0.00 ticks)
  Sync time (average)   =    0.00 sec.
  Wait time (average)   =    0.00 sec.
                          ------------
Total (root+branch&cut) =   35.43 sec. (21615.79 ticks)
